c description: Random 3-CNF over 19 variables and 81 clauses
c generator: CNFgen (0.9.2)
c copyright: (C) 2012-2022 Massimo Lauria <massimo.lauria@uniroma1.it>
c url: https://massimolauria.net/cnfgen
c command line: cnfgen --output CNF_4.28/19_bit_81_277.cnf randkcnf 3 19 81
c
p cnf 19 81
-5 -12 17 0
-1 2 -3 0
12 -14 -17 0
-4 8 -19 0
-2 -5 -13 0
1 -3 8 0
7 12 -13 0
-5 8 11 0
1 -17 -18 0
-7 13 19 0
-2 13 18 0
-8 17 18 0
7 16 -19 0
4 -10 -11 0
10 -13 -17 0
-3 -9 17 0
-6 -8 -15 0
-2 -3 -14 0
4 -9 13 0
5 11 -18 0
3 -8 16 0
9 -13 19 0
1 17 -19 0
1 11 12 0
7 -9 -17 0
4 -7 -12 0
3 -5 -9 0
11 -12 14 0
-3 -6 19 0
3 6 15 0
-2 7 10 0
12 17 19 0
1 -6 9 0
7 13 -15 0
7 16 18 0
8 10 11 0
1 5 -13 0
3 -5 -17 0
-6 -14 17 0
-1 -7 10 0
5 12 19 0
14 -15 17 0
-3 6 -19 0
-4 8 -17 0
-1 -2 17 0
-1 -16 -19 0
4 6 7 0
-6 -7 -19 0
-13 15 16 0
-6 10 -11 0
-1 6 -9 0
-5 12 -13 0
10 18 19 0
3 -5 6 0
-1 -3 8 0
-9 11 -19 0
-11 17 -18 0
-14 15 -16 0
12 14 -19 0
5 -6 -10 0
-4 5 7 0
-1 -2 5 0
-7 12 15 0
-3 7 -10 0
5 8 18 0
-6 11 13 0
11 -14 -15 0
2 13 16 0
-5 -10 17 0
2 -9 14 0
-10 -13 19 0
-2 11 -17 0
8 -9 12 0
5 17 19 0
1 8 -11 0
6 -15 18 0
3 4 7 0
-3 14 -15 0
-5 9 19 0
4 6 -9 0
-5 16 19 0
